126 5
10 10 10 10 10 

0 0 0 0 0 0 2 2 14 
0 0 0 0 0 0 1 3 
1 0 1 0 0 0 1 4 
5 0 5 0 0 0 1 5 
7 0 5 0 0 0 2 8 6 
5 0 6 0 0 0 1 7 
6 0 8 0 0 0 2 10 9 
3 0 6 0 0 0 2 10 9 
7 0 5 0 0 0 2 12 11 
10 0 5 0 0 0 1 11 
8 0 5 0 0 0 1 13 
4 0 4 0 0 0 1 13 
0 0 0 0 0 0 1 26 
0 0 0 0 0 0 1 15 
1 0 1 0 0 0 2 20 16 
10 0 6 0 0 0 1 17 
7 0 6 0 0 0 3 24 23 18 
8 0 5 0 0 0 1 19 
2 0 6 0 0 0 1 21 
8 0 6 0 0 0 1 21 
5 0 6 0 0 0 1 22 
3 0 3 0 0 0 1 25 
6 0 6 0 0 0 1 25 
4 0 5 0 0 0 1 25 
0 0 0 0 0 0 1 26 
0 0 0 0 0 0 2 27 39 
0 0 0 0 0 0 2 28 31 
7 0 0 2 0 0 1 29 
4 0 0 3 0 0 1 30 
8 0 0 8 0 0 2 33 32 
3 0 0 4 0 0 1 32 
10 0 0 10 0 0 1 34 
3 0 0 6 0 0 1 35 
5 0 0 2 0 0 1 36 
6 0 0 8 0 0 1 36 
5 0 0 5 0 0 1 37 
5 0 0 2 0 0 1 38 
0 0 0 0 0 0 1 51 
0 0 0 0 0 0 1 40 
7 0 1 0 0 0 1 41 
5 0 2 0 0 0 2 44 42 
6 0 7 0 0 0 1 43 
3 0 4 0 0 0 3 49 46 45 
6 0 4 0 0 0 2 49 47 
1 0 8 0 0 0 1 47 
3 0 4 0 0 0 1 47 
6 0 5 0 0 0 1 48 
3 0 9 0 0 0 1 50 
7 0 6 0 0 0 1 50 
0 0 0 0 0 0 1 51 
0 0 0 0 0 0 2 52 64 
0 0 0 0 0 0 3 53 54 62 
1 0 0 2 0 0 2 61 55 
9 0 0 6 0 0 2 61 57 
9 0 0 3 0 0 1 56 
4 0 0 4 0 0 1 57 
3 0 0 3 0 0 1 58 
7 0 0 5 0 0 1 59 
3 0 0 10 0 0 1 60 
9 0 0 5 0 0 1 63 
8 0 0 6 0 0 1 63 
7 0 0 6 0 0 1 63 
0 0 0 0 0 0 1 76 
0 0 0 0 0 0 3 65 68 71 
10 0 0 0 1 0 1 66 
4 0 0 0 7 0 1 67 
7 0 0 0 7 0 1 69 
7 0 0 0 5 0 1 69 
2 0 0 0 4 0 1 70 
6 0 0 0 6 0 2 74 72 
5 0 0 0 4 0 2 74 72 
3 0 0 0 7 0 1 73 
2 0 0 0 5 0 1 75 
4 0 0 0 4 0 1 75 
0 0 0 0 0 0 1 76 
0 0 0 0 0 0 2 77 89 
0 0 0 0 0 0 3 78 85 87 
7 1 0 0 0 0 1 79 
5 3 0 0 0 0 1 80 
1 7 0 0 0 0 2 83 81 
2 6 0 0 0 0 1 82 
1 4 0 0 0 0 1 84 
4 7 0 0 0 0 1 84 
10 4 0 0 0 0 1 86 
3 5 0 0 0 0 1 86 
8 4 0 0 0 0 1 88 
8 9 0 0 0 0 1 88 
0 0 0 0 0 0 1 101 
0 0 0 0 0 0 2 90 93 
9 0 1 0 0 0 2 92 91 
10 0 6 0 0 0 2 97 94 
6 0 4 0 0 0 2 97 95 
7 0 6 0 0 0 2 97 95 
8 0 7 0 0 0 1 95 
4 0 5 0 0 0 1 96 
4 0 7 0 0 0 1 98 
10 0 4 0 0 0 1 98 
5 0 6 0 0 0 1 99 
9 0 4 0 0 0 1 100 
0 0 0 0 0 0 1 101 
0 0 0 0 0 0 2 102 114 
0 0 0 0 0 0 2 103 105 
3 0 0 1 0 0 2 107 104 
8 0 0 5 0 0 1 106 
1 0 0 3 0 0 1 106 
4 0 0 8 0 0 1 108 
9 0 0 5 0 0 1 108 
9 0 0 6 0 0 2 112 109 
7 0 0 5 0 0 1 110 
2 0 0 9 0 0 1 111 
3 0 0 4 0 0 1 113 
5 0 0 4 0 0 1 113 
0 0 0 0 0 0 1 126 
0 0 0 0 0 0 4 115 117 119 121 
2 0 0 1 0 0 1 116 
4 0 0 6 0 0 1 118 
6 0 0 7 0 0 1 118 
3 0 0 7 0 0 1 120 
1 0 0 4 0 0 1 120 
2 0 0 3 0 0 1 122 
3 0 0 5 0 0 1 122 
1 0 0 6 0 0 1 123 
1 0 0 6 0 0 1 124 
10 0 0 5 0 0 1 125 
0 0 0 0 0 0 1 126 
0 0 0 0 0 0 0 
